
List of user-set options:

                                    Name   Value                used
                           compl_inf_tol = 1                     yes
                         constr_viol_tol = 1                     yes
                            dual_inf_tol = 1000                  yes
                           linear_solver = ma97                  yes
                              ma86_small = 1e-30                  no
                                  ma86_u = 0.0001                 no
                              ma97_order = best                  yes
                              ma97_small = 1e-30                 yes
                            ma97_switch1 = at_start              yes
                            ma97_switch2 = od_hd_reuse           yes
                                  ma97_u = 1e-06                 yes
                               ma97_umax = 0.5                   yes
                                max_iter = 1000                  yes
                    max_refinement_steps = 20                    yes
                    min_refinement_steps = 5                     yes
                                 mu_init = 1e-06                 yes
           mu_superlinear_decrease_power = 1.25                  yes
                   nlp_scaling_min_value = 1e-08                 yes
                        option_file_name = Preset_Case_650_pf.opt  yes
                             output_file = ./tmp/Preset_Case_650_pf.output  yes
                      print_user_options = yes                   yes
        required_infeasibility_reduction = 1                      no
                                     tol = 1e-08                 yes
                   warm_start_bound_frac = 1e-20                 yes
                   warm_start_bound_push = 1e-20                 yes
                   warm_start_init_point = yes                   yes
              warm_start_mult_bound_push = 1e-20                 yes
                warm_start_mult_init_max = 1e+40                 yes
             warm_start_slack_bound_frac = 1e-20                 yes
             warm_start_slack_bound_push = 1e-20                 yes

******************************************************************************
This program contains Ipopt, a library for large-scale nonlinear optimization.
 Ipopt is released as open source code under the Eclipse Public License (EPL).
         For more information visit http://projects.coin-or.org/Ipopt
******************************************************************************

This is Ipopt version 3.12.10, running with linear solver ma97.

Number of nonzeros in equality constraint Jacobian...:   123442
Number of nonzeros in inequality constraint Jacobian.:      213
Number of nonzeros in Lagrangian Hessian.............:    49069

Total number of variables............................:    31591
                     variables with only lower bounds:    12912
                variables with lower and upper bounds:    15130
                     variables with only upper bounds:        0
Total number of equality constraints.................:    31483
Total number of inequality constraints...............:       25
        inequality constraints with only lower bounds:        4
   inequality constraints with lower and upper bounds:        0
        inequality constraints with only upper bounds:       21

iter    objective    inf_pr   inf_du lg(mu)  ||d||  lg(rg) alpha_du alpha_pr  ls
   0 -5.2488362e+00 4.05e-03 1.02e+00  -6.0 0.00e+00    -  0.00e+00 0.00e+00   0
   1 -5.2481087e+00 1.64e-02 1.02e+00  -6.0 2.80e+05    -  1.29e-04 5.83e-05h  3
   2 -5.2498250e+00 1.64e-02 3.79e+01  -6.0 4.14e+03    -  1.68e-01 1.97e-03h  1
   3 -5.4450202e+00 2.79e+00 6.94e+02  -6.0 4.17e+03    -  8.21e-03 2.26e-01f  1
   4 -5.6156070e+00 4.30e+00 1.14e+03  -6.0 2.93e+03    -  4.93e-01 2.88e-01h  1
   5 -5.7153295e+00 7.65e+00 2.10e+03  -6.0 3.44e+03    -  5.73e-01 4.78e-01h  1
   6 -5.8108795e+00 1.42e+01 1.94e+03  -6.0 1.09e+03    -  4.46e-01 8.87e-01h  1
   7 -5.7535858e+00 1.49e-02 2.31e+03  -6.0 3.70e+00  -4.0 1.18e-01 1.00e+00h  1
   8 -5.7550326e+00 1.39e-03 1.08e+03  -6.0 5.06e+00  -4.5 3.21e-01 1.00e+00h  1
   9 -5.8099800e+00 1.27e+00 1.92e+02  -6.0 6.11e+02    -  3.59e-01 8.97e-01h  1
iter    objective    inf_pr   inf_du lg(mu)  ||d||  lg(rg) alpha_du alpha_pr  ls
  10 -5.8372136e+00 1.09e+00 4.28e+02  -6.0 7.18e+02    -  5.94e-02 3.99e-01h  1
  11 -5.8315639e+00 1.00e+00 4.72e+04  -6.0 7.04e+02  -5.0 4.69e-04 9.19e-02h  1
  12 -5.8197056e+00 7.99e-01 1.21e+05  -6.0 1.89e+02  -5.4 3.01e-03 2.92e-01h  1
  13 -5.8148055e+00 2.71e-01 4.07e+04  -6.0 1.38e+01  -5.9 2.19e-01 6.64e-01h  1
  14 -5.8136318e+00 1.11e-01 1.60e+04  -6.0 2.80e+01  -6.4 7.28e-01 6.07e-01h  1
  15 -5.8151021e+00 9.71e-02 1.49e+01  -6.0 5.72e+01  -6.9 1.00e+00 1.00e+00h  1
  16 -5.8135717e+00 3.55e-04 7.06e+01  -6.0 8.32e-01  -4.6 7.20e-01 1.00e+00h  1
  17 -5.8136172e+00 7.76e-05 1.67e-02  -6.0 3.67e-01  -4.2 1.00e+00 1.00e+00h  1
  18 -5.8139075e+00 2.77e-03 5.68e+00  -6.0 1.99e+00  -4.7 3.87e-01 1.00e+00h  1
  19 -5.8143568e+00 9.90e-04 7.55e-02  -6.0 1.09e+00  -4.3 1.00e+00 1.00e+00h  1
iter    objective    inf_pr   inf_du lg(mu)  ||d||  lg(rg) alpha_du alpha_pr  ls
  20 -5.8157660e+00 1.17e-02 1.27e+00  -6.0 8.85e+01  -4.7 2.97e-02 3.52e-02h  1
  21 -5.8162737e+00 2.69e-04 6.27e+00  -6.0 3.01e+00  -5.2 1.00e+00 1.00e+00f  1
  22 -5.8171311e+00 1.06e-03 4.20e+00  -6.0 1.13e+00  -3.9 1.00e+00 1.00e+00h  1
  23 -5.8203228e+00 1.09e-02 8.18e+01  -6.0 6.37e+00  -4.4 5.09e-01 4.90e-01h  1
  24 -5.8259484e+00 1.28e-02 1.16e+03  -6.0 2.82e+00  -4.8 1.00e+00 1.00e+00h  1
  25 -5.8284857e+00 1.16e-02 1.64e+04  -6.0 5.51e+00  -5.3 2.59e-01 3.20e-01h  1
  26 -5.8291039e+00 1.12e-02 3.57e+04  -6.0 1.75e+01  -5.8 5.56e-01 6.10e-02h  1
  27r-5.8291039e+00 1.12e-02 1.00e+03  -2.4 0.00e+00  -6.3 0.00e+00 3.43e-07R  4
  28r-5.8258992e+00 6.13e-03 1.04e+03  -2.4 8.03e+02    -  1.05e-03 4.72e-04f  1
  29 -5.8262197e+00 5.42e-03 6.32e+04  -6.0 8.64e-01    -  1.54e-01 1.15e-01h  1
iter    objective    inf_pr   inf_du lg(mu)  ||d||  lg(rg) alpha_du alpha_pr  ls
  30 -5.8279237e+00 1.60e-03 1.29e+06  -6.0 7.38e-01    -  1.15e-01 7.02e-01h  1
  31 -5.8282824e+00 8.46e-04 6.82e+05  -6.0 1.70e-01    -  8.96e-01 4.71e-01h  1
  32 -5.8293955e+00 3.09e-04 4.09e+00  -6.0 2.15e+00    -  8.78e-01 1.00e+00h  1
  33 -5.8308912e+00 2.95e-03 1.01e+00  -6.0 1.66e+01    -  8.03e-01 7.83e-01h  1
  34 -5.8338453e+00 4.18e-02 8.38e-01  -6.0 4.90e+01    -  9.49e-01 1.00e+00f  1
  35 -5.8423723e+00 1.39e+00 6.43e+00  -6.0 2.02e+03    -  1.07e-01 1.06e-01h  1
  36 -5.8439013e+00 7.03e-01 4.76e+02  -6.0 2.04e+02    -  6.21e-01 6.32e-01h  1
  37 -5.8516778e+00 1.20e+00 8.09e+03  -6.0 1.95e+03    -  1.04e-01 7.75e-02h  1
  38 -5.8792121e+00 1.94e+01 9.32e+04  -6.0 1.00e+03    -  6.63e-02 1.00e+00h  1
  39 -5.8814423e+00 9.42e+00 1.03e+05  -6.0 2.01e+02  -6.7 6.18e-02 5.14e-01h  1
iter    objective    inf_pr   inf_du lg(mu)  ||d||  lg(rg) alpha_du alpha_pr  ls
  40 -5.9028397e+00 2.30e+00 3.39e+05  -6.0 3.38e+02  -7.2 3.64e-01 9.59e-01h  1
  41r-5.9028397e+00 2.30e+00 1.00e+03   0.2 0.00e+00    -  0.00e+00 4.52e-07R  4
  42r-5.9137883e+00 2.29e+00 1.00e+03   0.2 1.54e+04    -  3.49e-06 1.30e-06f  1
  43 -5.9136408e+00 2.26e+00 2.03e+05  -6.0 2.26e+01    -  1.39e-01 1.33e-02h  1
  44 -5.9002834e+00 1.38e+00 6.53e+06  -6.0 2.24e+01    -  1.33e-02 3.93e-01h  1
  45 -5.8991840e+00 9.07e-01 4.30e+06  -6.0 1.35e+01    -  8.19e-01 3.42e-01h  1
  46 -5.9063072e+00 8.37e-01 3.97e+06  -6.0 1.81e+01    -  4.88e-01 7.66e-02h  1
  47 -5.9019505e+00 2.83e-03 3.42e+01  -6.0 6.78e+00    -  9.29e-01 1.00e+00h  1
  48 -5.9033544e+00 2.72e-03 1.00e+01  -6.0 1.06e+01    -  9.10e-01 9.12e-01h  1
  49 -5.9087042e+00 1.23e-01 4.23e+00  -6.0 6.27e+01    -  6.58e-01 1.00e+00h  1
iter    objective    inf_pr   inf_du lg(mu)  ||d||  lg(rg) alpha_du alpha_pr  ls
  50 -5.9097050e+00 1.19e-01 2.20e+01  -6.0 3.35e+02    -  5.32e-01 3.18e-02h  1
  51 -5.9152450e+00 3.64e-01 8.13e+00  -6.0 1.41e+02    -  9.20e-01 1.00e+00f  1
  52 -5.9165794e+00 4.67e-01 1.08e+01  -6.0 5.02e+03  -7.7 2.28e-01 1.31e-02h  1
  53 -5.9268521e+00 9.74e-01 1.54e+02  -6.0 1.61e+03    -  8.55e-01 4.23e-01h  1
  54 -5.9298565e+00 8.08e-01 4.36e+03  -6.0 9.51e+02    -  3.05e-01 1.99e-01h  1
  55 -5.9332224e+00 1.61e+00 3.19e+03  -6.0 8.77e+02    -  4.78e-01 1.00e+00h  1
  56 -5.9327064e+00 1.16e+00 1.42e+03  -6.0 1.79e+02    -  4.62e-01 2.88e-01h  1
  57 -5.9297021e+00 2.40e-01 1.31e+01  -6.0 1.24e+02    -  9.98e-01 1.00e+00h  1
  58 -5.9294060e+00 7.64e-03 8.94e-01  -6.0 4.39e+01    -  1.00e+00 1.00e+00h  1
  59 -5.9293463e+00 3.18e-03 9.06e+00  -6.0 7.73e+00    -  1.00e+00 5.94e-01h  1
iter    objective    inf_pr   inf_du lg(mu)  ||d||  lg(rg) alpha_du alpha_pr  ls
  60 -5.9292928e+00 1.35e-04 1.27e-02  -6.0 2.97e+00    -  1.00e+00 1.00e+00h  1
  61 -5.9292958e+00 3.09e-06 1.97e-04  -6.0 2.74e-01    -  1.00e+00 1.00e+00h  1
  62 -5.9292959e+00 1.58e-08 9.74e-07  -6.0 1.96e-02    -  1.00e+00 1.00e+00h  1
  63 -5.9294174e+00 2.92e+00 8.04e+01  -7.5 5.61e+02    -  5.01e-01 7.78e-01h  1
  64 -5.9294091e+00 6.59e-01 9.89e+00  -7.5 1.12e+02    -  9.82e-01 8.22e-01h  1
  65 -5.9294049e+00 6.69e-03 2.59e-02  -7.5 2.00e+01    -  1.00e+00 1.00e+00h  1
  66 -5.9294048e+00 6.35e-06 2.97e-06  -7.5 6.42e-01    -  1.00e+00 1.00e+00h  1
  67 -5.9294048e+00 2.85e-10 9.26e-11  -7.5 2.88e-03    -  1.00e+00 1.00e+00h  1
  68 -5.9294063e+00 2.70e-03 9.03e-01  -9.0 1.59e+01    -  9.24e-01 8.26e-01h  1
  69 -5.9294066e+00 1.06e-04 5.00e-04  -9.0 2.59e+00    -  1.00e+00 1.00e+00h  1
iter    objective    inf_pr   inf_du lg(mu)  ||d||  lg(rg) alpha_du alpha_pr  ls
  70 -5.9294066e+00 1.24e-09 3.85e-09  -9.0 8.98e-03    -  1.00e+00 1.00e+00h  1

Number of Iterations....: 70

                                   (scaled)                 (unscaled)
Objective...............:  -4.6323489082573239e+00   -5.9294066025693750e+00
Dual infeasibility......:   3.8548811042877509e-09    4.9342478134883215e-09
Constraint violation....:   7.7461500193615355e-10    1.2405507732182741e-09
Complementarity.........:   1.1490305093507113e-09    1.4707590519689104e-09
Overall NLP error.......:   3.8548811042877509e-09    4.9342478134883215e-09


Number of objective function evaluations             = 82
Number of objective gradient evaluations             = 71
Number of equality constraint evaluations            = 82
Number of inequality constraint evaluations          = 82
Number of equality constraint Jacobian evaluations   = 73
Number of inequality constraint Jacobian evaluations = 73
Number of Lagrangian Hessian evaluations             = 70
Total CPU secs in IPOPT (w/o function evaluations)   =    150.032
Total CPU secs in NLP function evaluations           =      2.811

EXIT: Optimal Solution Found.
